This is Ipopt version 3.10.0, running with linear solver ma27.

Number of nonzeros in equality constraint Jacobian...:        0
Number of nonzeros in inequality constraint Jacobian.:       16
Number of nonzeros in Lagrangian Hessian.............:        0

Total number of variables............................:       16
                     variables with only lower bounds:        0
                variables with lower and upper bounds:       16
                     variables with only upper bounds:        0
Total number of equality constraints.................:        0
Total number of inequality constraints...............:        1
        inequality constraints with only lower bounds:        0
   inequality constraints with lower and upper bounds:        0
        inequality constraints with only upper bounds:        1

iter    objective    inf_pr   inf_du lg(mu)  ||d||  lg(rg) alpha_du alpha_pr  ls
   0  4.7213319e-04 2.65e-01 9.96e-01   0.0 0.00e+00    -  0.00e+00 0.00e+00   0
   1  2.8750982e-03 0.00e+00 4.48e-01  -1.6 2.46e-02    -  1.00e+00 1.00e+00h  1
   2  2.1538416e-03 0.00e+00 6.67e-02  -2.7 7.04e-03    -  1.00e+00 1.00e+00h  1
   3  1.5559866e-03 0.00e+00 5.06e-02  -3.8 7.28e-03    -  9.99e-01 1.00e+00h  1
   4  1.3867719e-03 0.00e+00 3.00e-02  -4.9 1.87e-02    -  1.00e+00 1.00e+00h  1
   5  1.2830526e-03 0.00e+00 1.46e-02  -6.2 1.97e-02    -  1.00e+00 9.60e-01h  1
   6  1.2660268e-03 0.00e+00 6.50e-03  -7.0 1.98e-03    -  1.00e+00 1.00e+00h  1
   7  1.2509350e-03 0.00e+00 3.37e-03  -7.8 2.23e-03    -  1.00e+00 1.00e+00h  1
   8  1.2193581e-03 2.26e-03 2.14e-03  -6.0 8.40e-03    -  1.00e+00 7.25e-01h  1
   9  1.2150352e-03 0.00e+00 1.18e-03  -6.1 7.01e-03    -  1.00e+00 1.00e+00h  1
iter    objective    inf_pr   inf_du lg(mu)  ||d||  lg(rg) alpha_du alpha_pr  ls
  10  1.1980991e-03 0.00e+00 1.40e-03  -6.3 1.94e-02    -  1.00e+00 1.00e+00h  1
  11  1.2219985e-03 0.00e+00 2.54e-03  -5.1 2.55e-02    -  1.00e+00 5.49e-01h  1
  12  1.2015962e-03 0.00e+00 5.58e-04  -5.8 3.35e-03    -  1.00e+00 1.00e+00h  1
  13  1.1837716e-03 0.00e+00 1.18e-03  -6.2 7.10e-03    -  1.00e+00 1.00e+00h  1
  14  1.1771143e-03 0.00e+00 2.58e-04  -6.6 2.66e-03    -  1.00e+00 1.00e+00h  1
  15  1.1734169e-03 0.00e+00 6.13e-04  -7.3 3.12e-03    -  1.00e+00 1.00e+00h  1
  16  1.1718942e-03 0.00e+00 5.55e-04  -7.7 3.38e-03    -  1.00e+00 1.00e+00h  1
  17  1.1729836e-03 0.00e+00 5.42e-04  -6.8 3.18e-03    -  1.00e+00 1.00e+00h  1
  18  1.1712296e-03 0.00e+00 2.40e-04  -7.9 9.08e-04    -  1.00e+00 1.00e+00h  1
  19  1.1709830e-03 0.00e+00 1.96e-05  -8.5 7.77e-04    -  1.00e+00 1.00e+00h  1
iter    objective    inf_pr   inf_du lg(mu)  ||d||  lg(rg) alpha_du alpha_pr  ls
  20  1.1709173e-03 0.00e+00 2.36e-05  -9.9 5.03e-04    -  1.00e+00 1.00e+00h  1
  21  1.1709079e-03 0.00e+00 1.59e-05 -11.0 6.30e-04    -  1.00e+00 1.00e+00h  1
  22  1.1709052e-03 0.00e+00 4.06e-06 -11.0 2.43e-04    -  1.00e+00 1.00e+00h  1
  23  1.1709046e-03 0.00e+00 2.85e-07 -11.0 3.73e-05    -  1.00e+00 1.00e+00h  1

Number of Iterations....: 23

                                   (scaled)                 (unscaled)
Objective...............:   1.1709045829318440e-03    1.1709045829318440e-03
Dual infeasibility......:   2.8509843237432700e-07    2.8509843237432700e-07
Constraint violation....:   0.0000000000000000e+00    0.0000000000000000e+00
Complementarity.........:   4.0325812828089319e-11    4.0325812828089319e-11
Overall NLP error.......:   2.8509843237432700e-07    2.8509843237432700e-07


Number of objective function evaluations             = 24
Number of objective gradient evaluations             = 24
Number of equality constraint evaluations            = 0
Number of inequality constraint evaluations          = 24
Number of equality constraint Jacobian evaluations   = 0
Number of inequality constraint Jacobian evaluations = 24
Number of Lagrangian Hessian evaluations             = 0
Total CPU secs in IPOPT (w/o function evaluations)   =      0.227
Total CPU secs in NLP function evaluations           =  16358.844

EXIT: Stopping optimization at current point as requested by user.
